 Code  3031
 Dimension, Fixed Cost
   100        3000
 Facility, Client, Transportation Cost
     1        8           0
     1       30           1
     1       38           4
     1       42           1
     1       60           4
     1       79           4
     1       91           1
     1       93           3
     1       94           4
     1       97           4
     2       17           4
     2       23           3
     2       26           2
     2       29           2
     2       30           1
     2       43           2
     2       54           0
     2       56           3
     2       66           2
     2       74           1
     3        7           2
     3       23           0
     3       25           0
     3       26           0
     3       34           2
     3       57           4
     3       59           4
     3       76           2
     3       93           1
     3       97           0
     4       10           0
     4       28           1
     4       35           2
     4       45           0
     4       52           4
     4       55           0
     4       80           1
     4       88           4
     4       92           0
     4       94           0
     5        2           2
     5        3           1
     5       19           1
     5       27           4
     5       34           1
     5       42           3
     5       55           4
     5       57           3
     5       58           4
     5       60           3
     6        4           1
     6        8           1
     6       17           0
     6       19           3
     6       33           1
     6       37           2
     6       44           2
     6       62           4
     6       68           4
     6       71           0
     7       20           1
     7       36           3
     7       60           2
     7       64           3
     7       68           2
     7       71           3
     7       73           2
     7       93           2
     7       96           1
     7       98           2
     8        5           1
     8        7           0
     8       11           2
     8       18           1
     8       28           2
     8       31           4
     8       62           3
     8       67           2
     8       86           0
     8       91           2
     9        1           0
     9        4           2
     9        5           0
     9       17           1
     9       21           1
     9       35           3
     9       47           3
     9       53           4
     9       55           3
     9       94           3
    10        1           3
    10       31           0
    10       32           3
    10       35           3
    10       40           0
    10       44           1
    10       45           0
    10       59           4
    10       65           4
    10       99           3
    11       11           2
    11       21           3
    11       35           2
    11       41           2
    11       49           4
    11       52           4
    11       55           3
    11       67           1
    11       76           3
    11       94           4
    12       25           2
    12       49           0
    12       51           4
    12       64           4
    12       70           1
    12       71           3
    12       77           0
    12       81           1
    12       85           2
    12       88           4
    13       14           3
    13       21           2
    13       38           0
    13       46           2
    13       49           2
    13       59           0
    13       66           1
    13       71           1
    13       75           4
    13       81           2
    14       12           1
    14       31           1
    14       34           1
    14       58           3
    14       64           1
    14       69           3
    14       73           2
    14       75           1
    14       90           1
    14       98           4
    15       23           2
    15       32           0
    15       33           1
    15       39           1
    15       49           3
    15       64           1
    15       70           2
    15       78           2
    15       81           2
    15       85           1
    16       11           4
    16       24           0
    16       29           2
    16       38           0
    16       43           2
    16       44           2
    16       60           1
    16       76           4
    16       90           2
    16       96           0
    17       10           3
    17       12           2
    17       46           3
    17       48           3
    17       52           4
    17       53           4
    17       71           4
    17       75           1
    17       76           4
    17       83           2
    18       25           2
    18       33           1
    18       42           1
    18       47           4
    18       57           4
    18       61           4
    18       68           2
    18       69           1
    18       79           2
    18       80           4
    19        1           3
    19       11           4
    19       14           3
    19       34           4
    19       35           3
    19       50           4
    19       67           4
    19       71           2
    19       88           0
    19       92           1
    20       22           3
    20       42           2
    20       45           3
    20       49           4
    20       57           4
    20       66           1
    20       72           1
    20       79           1
    20       89           3
    20       90           3
    21        7           0
    21       10           1
    21       20           0
    21       28           2
    21       30           1
    21       52           2
    21       72           3
    21       76           1
    21       77           4
    21       88           4
    22       18           4
    22       22           0
    22       30           3
    22       41           1
    22       48           1
    22       60           0
    22       62           3
    22       68           0
    22       77           0
    22       97           1
    23        1           4
    23       17           2
    23       20           2
    23       34           4
    23       48           0
    23       55           0
    23       57           4
    23       63           0
    23       64           2
    23       79           4
    24        2           0
    24       11           2
    24       22           1
    24       31           3
    24       35           1
    24       46           2
    24       57           1
    24       78           2
    24       90           2
    24       96           4
    25       18           4
    25       19           0
    25       25           1
    25       27           1
    25       29           0
    25       43           1
    25       55           1
    25       60           0
    25       61           2
    25       95           3
    26        3           4
    26       12           0
    26       27           1
    26       45           0
    26       59           1
    26       65           2
    26       73           1
    26       83           3
    26       84           3
    26       93           0
    27        6           3
    27        9           0
    27       41           0
    27       49           3
    27       63           3
    27       71           2
    27       74           3
    27       86           2
    27       89           2
    27       98           3
    28        5           3
    28       22           2
    28       41           4
    28       64           0
    28       80           2
    28       87           2
    28       93           4
    28       97           0
    28       98           2
    28       99           3
    29        1           4
    29       11           0
    29       16           3
    29       20           1
    29       52           0
    29       56           1
    29       67           2
    29       75           1
    29       83           0
    29       91           4
    30        4           2
    30        7           3
    30       20           2
    30       31           4
    30       45           2
    30       53           2
    30       62           2
    30       77           3
    30       81           4
    30       94           2
    31        2           1
    31        9           4
    31       14           3
    31       19           1
    31       41           3
    31       60           2
    31       67           0
    31       81           2
    31       82           1
    31       85           1
    32        3           4
    32       21           3
    32       23           2
    32       24           2
    32       32           4
    32       39           0
    32       60           4
    32       63           3
    32       66           1
    32       91           4
    33        5           4
    33       28           1
    33       34           4
    33       54           0
    33       67           2
    33       69           1
    33       72           4
    33       75           4
    33       80           3
    33       92           1
    34       14           3
    34       24           4
    34       34           0
    34       36           2
    34       43           2
    34       46           3
    34       57           1
    34       87           3
    34       98           0
    34       99           4
    35       17           3
    35       20           4
    35       31           4
    35       39           2
    35       41           3
    35       64           3
    35       69           2
    35       77           1
    35       81           4
    35       98           0
    36       10           4
    36       17           2
    36       19           4
    36       23           2
    36       30           0
    36       43           0
    36       44           0
    36       51           3
    36       63           1
    36       90           3
    37       19           4
    37       23           1
    37       35           2
    37       36           1
    37       63           4
    37       67           0
    37       70           3
    37       73           3
    37       76           0
    37       85           4
    38       15           0
    38       19           0
    38       22           4
    38       31           4
    38       34           1
    38       36           1
    38       37           3
    38       47           3
    38       59           4
    38       95           2
    39        4           1
    39        9           4
    39       36           2
    39       39           2
    39       45           0
    39       49           3
    39       68           1
    39       74           0
    39       77           0
    39       96           3
    40        6           1
    40        9           3
    40       23           4
    40       42           1
    40       55           1
    40       62           3
    40       66           2
    40       71           3
    40       72           2
    40       75           3
    41        2           0
    41       19           1
    41       31           2
    41       36           2
    41       57           4
    41       72           3
    41       76           0
    41       89           1
    41       94           4
    41       95           0
    42        1           1
    42       12           4
    42       14           3
    42       21           1
    42       31           0
    42       35           3
    42       43           3
    42       44           0
    42       50           1
    42       92           2
    43        4           3
    43        9           3
    43       44           4
    43       45           1
    43       46           3
    43       57           2
    43       77           3
    43       84           4
    43       85           2
    43       95           2
    44       14           2
    44       15           4
    44       17           1
    44       27           1
    44       29           0
    44       30           3
    44       37           0
    44       41           1
    44       59           1
    44       73           1
    45        8           3
    45       16           2
    45       24           3
    45       31           3
    45       35           2
    45       40           2
    45       42           2
    45       66           2
    45       88           3
    45       90           1
    46        3           3
    46        6           4
    46       10           3
    46       19           0
    46       42           1
    46       43           4
    46       52           4
    46       71           0
    46       90           2
    46       94           3
    47        1           2
    47       34           2
    47       44           2
    47       45           2
    47       57           3
    47       62           0
    47       80           0
    47       81           1
    47       94           4
    47       95           1
    48        8           4
    48       28           1
    48       48           2
    48       50           0
    48       57           4
    48       61           4
    48       74           4
    48       80           1
    48       81           4
    48       90           2
    49        2           1
    49       21           1
    49       23           1
    49       34           1
    49       36           1
    49       48           0
    49       52           0
    49       77           4
    49       98           3
    49      100           0
    50        4           3
    50        5           3
    50       38           0
    50       41           2
    50       60           0
    50       74           0
    50       77           0
    50       78           1
    50       82           4
    50       97           0
    51       14           0
    51       26           4
    51       27           3
    51       54           0
    51       58           3
    51       64           2
    51       65           3
    51       71           2
    51       85           0
    51      100           2
    52        7           2
    52       12           0
    52       14           4
    52       27           1
    52       42           1
    52       49           3
    52       56           1
    52       62           4
    52       68           0
    52       88           0
    53        1           2
    53       22           2
    53       30           0
    53       40           4
    53       41           3
    53       56           1
    53       57           1
    53       59           2
    53       76           1
    53       99           3
    54        1           0
    54       31           4
    54       44           1
    54       47           2
    54       53           3
    54       58           0
    54       61           4
    54       80           0
    54       98           4
    54       99           0
    55       36           2
    55       46           3
    55       59           2
    55       63           2
    55       69           1
    55       73           2
    55       81           3
    55       84           2
    55       89           2
    55       97           0
    56        5           1
    56       28           1
    56       54           2
    56       55           3
    56       57           1
    56       62           1
    56       66           1
    56       81           0
    56       84           2
    56       92           3
    57        2           1
    57       25           4
    57       26           1
    57       35           4
    57       41           2
    57       47           3
    57       69           2
    57       88           0
    57       95           0
    57       98           3
    58       10           0
    58       19           2
    58       25           0
    58       32           2
    58       33           4
    58       82           2
    58       83           4
    58       93           2
    58       96           2
    58       97           0
    59        1           0
    59        6           2
    59        8           2
    59       27           2
    59       33           1
    59       34           1
    59       45           4
    59       64           4
    59       81           3
    59       99           3
    60        8           1
    60       17           3
    60       18           3
    60       21           1
    60       24           0
    60       27           3
    60       41           2
    60       45           4
    60       71           0
    60       77           2
    61        8           1
    61       25           4
    61       53           3
    61       64           2
    61       71           2
    61       77           1
    61       87           1
    61       90           3
    61       93           4
    61       96           3
    62        6           0
    62       35           1
    62       42           0
    62       70           1
    62       79           4
    62       81           0
    62       82           4
    62       85           0
    62       92           0
    62       96           3
    63       24           3
    63       34           4
    63       57           3
    63       63           3
    63       67           1
    63       79           4
    63       81           3
    63       87           0
    63       92           0
    63       93           3
    64        3           0
    64       18           2
    64       20           0
    64       47           4
    64       61           4
    64       64           1
    64       66           2
    64       83           4
    64       87           3
    64       92           2
    65       10           1
    65       13           3
    65       30           0
    65       51           1
    65       54           1
    65       56           3
    65       61           4
    65       62           1
    65       83           1
    65       95           1
    66        6           0
    66       32           1
    66       43           1
    66       64           2
    66       69           1
    66       70           1
    66       73           3
    66       83           2
    66       94           0
    66       99           0
    67       35           3
    67       37           1
    67       40           3
    67       51           1
    67       69           1
    67       74           1
    67       76           2
    67       77           3
    67       80           1
    67       82           4
    68       25           1
    68       33           1
    68       39           2
    68       70           1
    68       71           1
    68       78           4
    68       80           2
    68       84           3
    68       87           3
    68       91           4
    69        1           3
    69       24           1
    69       25           3
    69       37           1
    69       38           2
    69       61           4
    69       79           0
    69       83           4
    69       90           4
    69       99           1
    70        6           3
    70       19           0
    70       39           2
    70       40           3
    70       51           1
    70       64           3
    70       76           3
    70       92           4
    70       93           0
    70       97           4
    71        1           1
    71       11           4
    71       13           2
    71       14           3
    71       23           4
    71       30           3
    71       53           4
    71       62           1
    71       76           0
    71       94           3
    72       21           1
    72       41           3
    72       45           0
    72       60           2
    72       62           2
    72       64           0
    72       66           0
    72       76           4
    72       83           0
    72       98           3
    73        4           3
    73       19           1
    73       37           3
    73       46           2
    73       53           3
    73       61           4
    73       67           0
    73       86           2
    73       89           2
    73       97           1
    74        1           4
    74       24           3
    74       31           1
    74       32           0
    74       39           1
    74       41           3
    74       48           2
    74       50           3
    74       89           0
    74       92           3
    75        6           2
    75       15           3
    75       38           4
    75       43           3
    75       50           1
    75       53           1
    75       54           3
    75       61           4
    75       75           4
    75       90           0
    76        7           0
    76       12           3
    76       14           1
    76       24           2
    76       26           4
    76       40           1
    76       50           3
    76       65           3
    76       79           1
    76       91           3
    77       17           2
    77       19           0
    77       20           2
    77       21           1
    77       24           0
    77       50           3
    77       55           4
    77       65           3
    77       87           3
    77       93           1
    78        5           2
    78       17           2
    78       19           0
    78       22           2
    78       37           4
    78       41           2
    78       58           3
    78       59           2
    78       77           0
    78       79           3
    79        1           2
    79       15           1
    79       17           1
    79       23           4
    79       41           1
    79       51           1
    79       71           2
    79       79           4
    79       96           2
    79       98           2
    80        4           2
    80       14           3
    80       19           1
    80       28           2
    80       31           4
    80       50           3
    80       76           3
    80       78           1
    80       85           4
    80       97           0
    81       15           2
    81       18           4
    81       30           4
    81       41           1
    81       44           3
    81       45           1
    81       59           2
    81       69           2
    81       80           2
    81       98           2
    82        9           0
    82       19           2
    82       35           2
    82       44           1
    82       47           4
    82       55           3
    82       71           4
    82       78           4
    82       86           3
    82       88           4
    83        2           1
    83       13           2
    83       14           2
    83       18           4
    83       52           0
    83       54           1
    83       60           3
    83       66           2
    83       85           3
    83       98           2
    84        1           4
    84        2           3
    84        3           4
    84       11           0
    84       19           3
    84       57           3
    84       83           1
    84       85           1
    84       92           1
    84       97           1
    85        2           1
    85        5           2
    85       10           4
    85       12           2
    85       14           3
    85       25           0
    85       27           4
    85       33           0
    85       38           3
    85       57           2
    86        4           2
    86       17           1
    86       36           0
    86       49           1
    86       50           4
    86       58           0
    86       62           2
    86       84           1
    86       85           2
    86       97           2
    87        4           1
    87        6           3
    87       12           2
    87       16           4
    87       50           0
    87       53           2
    87       55           2
    87       63           4
    87       83           3
    87       88           2
    88       20           4
    88       36           0
    88       37           3
    88       61           2
    88       62           1
    88       65           3
    88       67           1
    88       81           4
    88       90           0
    88       94           3
    89        5           3
    89       14           4
    89       16           1
    89       20           2
    89       30           4
    89       32           3
    89       53           2
    89       82           2
    89       87           0
    89       88           4
    90        4           2
    90        5           0
    90       12           4
    90       30           0
    90       39           3
    90       48           3
    90       49           0
    90       59           4
    90       70           1
    90       95           2
    91       29           3
    91       33           0
    91       50           0
    91       53           1
    91       64           0
    91       75           1
    91       77           4
    91       83           3
    91       84           0
    91       89           4
    92       14           2
    92       27           2
    92       31           1
    92       35           2
    92       47           0
    92       61           4
    92       72           2
    92       77           4
    92       83           1
    92       93           3
    93       14           2
    93       16           0
    93       26           3
    93       27           1
    93       43           3
    93       45           0
    93       49           2
    93       64           4
    93       87           3
    93       90           3
    94       14           1
    94       33           3
    94       36           2
    94       44           1
    94       80           3
    94       85           4
    94       90           4
    94       95           1
    94       97           0
    94       98           3
    95        7           1
    95       30           4
    95       32           1
    95       36           4
    95       37           2
    95       38           0
    95       75           1
    95       80           1
    95       92           4
    95       96           1
    96       11           3
    96       13           2
    96       19           1
    96       40           3
    96       45           4
    96       51           4
    96       69           1
    96       78           3
    96       79           2
    96       95           1
    97        3           1
    97        6           3
    97        7           2
    97       39           1
    97       56           1
    97       63           0
    97       80           0
    97       85           4
    97       98           4
    97      100           4
    98        2           0
    98        8           4
    98       14           0
    98       25           1
    98       31           4
    98       36           3
    98       57           1
    98       70           3
    98       76           0
    98       78           1
    99       19           2
    99       20           3
    99       29           2
    99       36           0
    99       48           2
    99       65           3
    99       69           0
    99       70           2
    99       86           1
    99       99           4
   100        2           2
   100        5           1
   100        6           3
   100       33           0
   100       42           2
   100       44           3
   100       54           1
   100       60           1
   100       63           1
   100       73           2
